DIMENSION: 105
1
2
6
7
10
11
15
103
20
19
16
17
18
25
26
24
27
23
28
21
22
29
30
31
32
33
36
37
42
41
44
104
45
40
49
48
50
55
56
47
51
54
43
46
52
53
58
57
105
59
62
63
64
67
68
71
78
82
83
72
77
79
73
69
70
74
75
81
76
80
86
84
85
91
92
96
97
101
102
93
98
99
89
90
100
95
94
88
87
66
65
61
60
39
38
35
34
14
13
4
5
9
8
12
3
